n_nodes = 691;
M = 6701;
n_domains = 18;
domain_link_weights = [|0,6701,6701,358,6701,6701,6701,6701,6701,6701,6701,6701,6701,6701,6701,6701,6701,6701|6701,0,6701,6701,6701,479,344,264,6701,6701,6701,6701,6701,6701,6701,6701,6701,6701|6701,6701,0,6701,6701,6701,6701,6701,6701,972,6701,6701,6701,6701,1788,6701,6701,6701|6701,6701,6701,0,6701,6701,6701,6701,6701,6701,6701,6701,6701,6701,6701,6701,6701,6701|6701,6701,6701,6701,0,364,358,173,6701,6701,6701,6701,6701,6701,6701,6701,6701,6223|6701,6701,6701,6701,6701,0,6701,6701,6701,6701,6701,6701,6701,6701,6701,6701,6701,6701|6701,6701,6701,6701,6701,6701,0,6701,5585,6701,6701,6701,6701,6701,6701,6701,6701,6701|6701,6701,6701,6701,6701,6701,6701,0,6701,6701,6701,6701,6701,6701,6701,6701,6701,6701|6701,6701,6701,6701,6701,6701,6701,6701,0,6701,6701,6701,6701,6701,6701,1148,556,350|6701,6701,6701,6701,6701,6701,6701,6701,6701,0,6701,6701,6701,2562,6701,943,6701,852|6701,6701,6701,6701,6701,6701,6701,6701,6701,6701,0,1141,6701,6701,6701,2795,6701,6701|6701,6701,6701,6701,6701,6701,6701,6701,6701,6701,6701,0,492,6701,6701,2963,6701,3855|6701,6701,6701,6701,6701,6701,6701,6701,6701,6701,6701,6701,0,575,1995,2807,6701,6701|6701,6701,6701,6701,6701,6701,6701,6701,6701,6701,6701,6701,6701,0,1425,6701,6701,6701|6701,6701,6701,6701,6701,6701,6701,6701,6701,6701,6701,6701,6701,6701,0,1291,6701,1872|6701,6701,6701,6701,6701,6701,6701,6701,6701,6701,6701,6701,6701,6701,6701,0,704,916|6701,6701,6701,6701,6701,6701,6701,6701,6701,6701,6701,6701,6701,6701,6701,6701,0,6701|6701,6701,6701,6701,6701,6701,6701,6701,6701,6701,6701,6701,6701,6701,6701,6701,6701,0|];
num_node_links = 1377;
node_links = [|1,3|1,4|2,6|2,7|2,8|3,10|3,15|5,6|5,7|5,8|5,18|7,9|9,16|9,17|9,18|10,14|10,16|10,18|11,12|11,16|12,13|12,16|12,18|13,14|13,15|13,16|14,15|15,16|15,18|16,17|16,18|1,19|19,1|1,48|48,1|1,72|72,1|1,90|90,1|1,113|113,1|1,120|120,1|1,154|154,1|1,193|193,1|1,221|221,1|1,239|239,1|1,265|265,1|1,279|279,1|1,293|293,1|1,307|307,1|1,362|362,1|1,371|371,1|1,406|406,1|1,423|423,1|1,439|439,1|1,449|449,1|1,488|488,1|1,514|514,1|1,531|531,1|1,568|568,1|1,603|603,1|1,607|607,1|1,613|613,1|1,619|619,1|1,625|625,1|1,642|642,1|1,643|643,1|1,645|645,1|1,660|660,1|1,663|663,1|1,677|677,1|2,20|20,2|2,51|51,2|2,101|101,2|2,168|168,2|2,226|226,2|2,228|228,2|2,233|233,2|2,268|268,2|2,274|274,2|2,283|283,2|2,302|302,2|2,304|304,2|2,317|317,2|2,325|325,2|2,326|326,2|2,335|335,2|2,357|357,2|2,363|363,2|2,374|374,2|2,384|384,2|2,397|397,2|2,448|448,2|2,465|465,2|2,478|478,2|2,482|482,2|2,484|484,2|2,490|490,2|2,491|491,2|2,503|503,2|2,510|510,2|2,541|541,2|2,584|584,2|2,604|604,2|2,605|605,2|2,622|622,2|2,634|634,2|2,635|635,2|2,657|657,2|3,21|21,3|3,40|40,3|3,81|81,3|3,82|82,3|3,103|103,3|3,104|104,3|3,152|152,3|3,153|153,3|3,164|164,3|3,169|169,3|3,185|185,3|3,190|190,3|3,199|199,3|3,225|225,3|3,246|246,3|3,250|250,3|3,253|253,3|3,286|286,3|3,296|296,3|3,309|309,3|3,348|348,3|3,360|360,3|3,375|375,3|3,388|388,3|3,402|402,3|3,418|418,3|3,420|420,3|3,441|441,3|3,442|442,3|3,456|456,3|3,471|471,3|3,479|479,3|3,489|489,3|3,499|499,3|3,540|540,3|3,624|624,3|3,646|646,3|4,22|22,4|4,39|39,4|4,44|44,4|4,45|45,4|4,95|95,4|4,107|107,4|4,118|118,4|4,126|126,4|4,128|128,4|4,139|139,4|4,181|181,4|4,184|184,4|4,209|209,4|4,213|213,4|4,231|231,4|4,238|238,4|4,248|248,4|4,264|264,4|4,271|271,4|4,295|295,4|4,298|298,4|4,324|324,4|4,396|396,4|4,416|416,4|4,438|438,4|4,440|440,4|4,461|461,4|4,467|467,4|4,516|516,4|4,549|549,4|4,552|552,4|4,576|576,4|4,587|587,4|4,631|631,4|4,632|632,4|4,669|669,4|4,681|681,4|4,690|690,4|5,23|23,5|5,57|57,5|5,96|96,5|5,106|106,5|5,135|135,5|5,166|166,5|5,167|167,5|5,171|171,5|5,173|173,5|5,182|182,5|5,195|195,5|5,202|202,5|5,299|299,5|5,314|314,5|5,320|320,5|5,354|354,5|5,367|367,5|5,369|369,5|5,379|379,5|5,380|380,5|5,413|413,5|5,430|430,5|5,486|486,5|5,496|496,5|5,515|515,5|5,533|533,5|5,545|545,5|5,555|555,5|5,574|574,5|5,586|586,5|5,595|595,5|5,597|597,5|5,637|637,5|5,649|649,5|5,664|664,5|5,670|670,5|5,674|674,5|5,685|685,5|6,24|24,6|6,53|53,6|6,60|60,6|6,93|93,6|6,121|121,6|6,129|129,6|6,138|138,6|6,150|150,6|6,162|162,6|6,179|179,6|6,214|214,6|6,215|215,6|6,249|249,6|6,259|259,6|6,272|272,6|6,300|300,6|6,327|327,6|6,333|333,6|6,350|350,6|6,356|356,6|6,373|373,6|6,405|405,6|6,412|412,6|6,421|421,6|6,429|429,6|6,434|434,6|6,452|452,6|6,453|453,6|6,469|469,6|6,480|480,6|6,501|501,6|6,543|543,6|6,585|585,6|6,620|620,6|6,641|641,6|6,655|655,6|6,662|662,6|6,672|672,6|7,25|25,7|7,43|43,7|7,49|49,7|7,56|56,7|7,58|58,7|7,74|74,7|7,97|97,7|7,136|136,7|7,147|147,7|7,177|177,7|7,188|188,7|7,200|200,7|7,203|203,7|7,207|207,7|7,208|208,7|7,211|211,7|7,242|242,7|7,306|306,7|7,370|370,7|7,395|395,7|7,454|454,7|7,464|464,7|7,475|475,7|7,485|485,7|7,495|495,7|7,509|509,7|7,525|525,7|7,530|530,7|7,539|539,7|7,553|553,7|7,570|570,7|7,598|598,7|7,599|599,7|7,621|621,7|7,623|623,7|7,665|665,7|7,680|680,7|7,684|684,7|8,26|26,8|8,91|91,8|8,92|92,8|8,100|100,8|8,125|125,8|8,130|130,8|8,140|140,8|8,144|144,8|8,157|157,8|8,186|186,8|8,187|187,8|8,234|234,8|8,280|280,8|8,310|310,8|8,312|312,8|8,342|342,8|8,347|347,8|8,368|368,8|8,389|389,8|8,398|398,8|8,428|428,8|8,445|445,8|8,466|466,8|8,500|500,8|8,538|538,8|8,547|547,8|8,550|550,8|8,554|554,8|8,569|569,8|8,594|594,8|8,611|611,8|8,612|612,8|8,627|627,8|8,628|628,8|8,630|630,8|8,638|638,8|8,667|667,8|8,683|683,8|9,27|27,9|9,37|37,9|9,69|69,9|9,70|70,9|9,75|75,9|9,87|87,9|9,98|98,9|9,110|110,9|9,117|117,9|9,172|172,9|9,175|175,9|9,183|183,9|9,256|256,9|9,273|273,9|9,276|276,9|9,289|289,9|9,301|301,9|9,308|308,9|9,315|315,9|9,334|334,9|9,339|339,9|9,346|346,9|9,383|383,9|9,387|387,9|9,407|407,9|9,426|426,9|9,427|427,9|9,476|476,9|9,492|492,9|9,493|493,9|9,497|497,9|9,519|519,9|9,535|535,9|9,548|548,9|9,616|616,9|9,654|654,9|9,678|678,9|9,689|689,9|10,28|28,10|10,55|55,10|10,61|61,10|10,71|71,10|10,77|77,10|10,83|83,10|10,85|85,10|10,102|102,10|10,114|114,10|10,160|160,10|10,178|178,10|10,206|206,10|10,217|217,10|10,219|219,10|10,245|245,10|10,251|251,10|10,261|261,10|10,275|275,10|10,281|281,10|10,297|297,10|10,303|303,10|10,305|305,10|10,311|311,10|10,321|321,10|10,332|332,10|10,425|425,10|10,455|455,10|10,473|473,10|10,522|522,10|10,563|563,10|10,578|578,10|10,590|590,10|10,606|606,10|10,615|615,10|10,636|636,10|10,659|659,10|10,679|679,10|10,691|691,10|11,29|29,11|11,42|42,11|11,52|52,11|11,63|63,11|11,94|94,11|11,122|122,11|11,134|134,11|11,146|146,11|11,148|148,11|11,170|170,11|11,176|176,11|11,198|198,11|11,254|254,11|11,262|262,11|11,266|266,11|11,282|282,11|11,288|288,11|11,313|313,11|11,316|316,11|11,345|345,11|11,364|364,11|11,393|393,11|11,400|400,11|11,458|458,11|11,472|472,11|11,506|506,11|11,507|507,11|11,518|518,11|11,559|559,11|11,560|560,11|11,575|575,11|11,580|580,11|11,588|588,11|11,593|593,11|11,601|601,11|11,618|618,11|11,626|626,11|11,644|644,11|12,30|30,12|12,89|89,12|12,116|116,12|12,127|127,12|12,131|131,12|12,151|151,12|12,156|156,12|12,204|204,12|12,218|218,12|12,257|257,12|12,270|270,12|12,285|285,12|12,322|322,12|12,328|328,12|12,336|336,12|12,344|344,12|12,376|376,12|12,385|385,12|12,392|392,12|12,399|399,12|12,408|408,12|12,424|424,12|12,451|451,12|12,462|462,12|12,481|481,12|12,498|498,12|12,504|504,12|12,513|513,12|12,527|527,12|12,542|542,12|12,544|544,12|12,551|551,12|12,564|564,12|12,572|572,12|12,592|592,12|12,633|633,12|12,671|671,12|12,675|675,12|13,31|31,13|13,38|38,13|13,59|59,13|13,66|66,13|13,73|73,13|13,88|88,13|13,99|99,13|13,115|115,13|13,124|124,13|13,142|142,13|13,180|180,13|13,192|192,13|13,201|201,13|13,212|212,13|13,220|220,13|13,235|235,13|13,244|244,13|13,260|260,13|13,269|269,13|13,292|292,13|13,318|318,13|13,340|340,13|13,359|359,13|13,382|382,13|13,401|401,13|13,403|403,13|13,404|404,13|13,432|432,13|13,483|483,13|13,511|511,13|13,520|520,13|13,546|546,13|13,577|577,13|13,581|581,13|13,651|651,13|13,666|666,13|13,687|687,13|14,32|32,14|14,41|41,14|14,64|64,14|14,67|67,14|14,76|76,14|14,84|84,14|14,108|108,14|14,109|109,14|14,111|111,14|14,143|143,14|14,158|158,14|14,163|163,14|14,191|191,14|14,205|205,14|14,224|224,14|14,230|230,14|14,240|240,14|14,241|241,14|14,287|287,14|14,337|337,14|14,361|361,14|14,394|394,14|14,410|410,14|14,422|422,14|14,447|447,14|14,450|450,14|14,459|459,14|14,523|523,14|14,534|534,14|14,558|558,14|14,583|583,14|14,602|602,14|14,629|629,14|14,639|639,14|14,640|640,14|14,652|652,14|14,653|653,14|15,33|33,15|15,54|54,15|15,65|65,15|15,112|112,15|15,137|137,15|15,155|155,15|15,197|197,15|15,210|210,15|15,237|237,15|15,277|277,15|15,278|278,15|15,330|330,15|15,331|331,15|15,378|378,15|15,390|390,15|15,391|391,15|15,409|409,15|15,411|411,15|15,415|415,15|15,417|417,15|15,460|460,15|15,487|487,15|15,494|494,15|15,502|502,15|15,505|505,15|15,524|524,15|15,526|526,15|15,529|529,15|15,537|537,15|15,561|561,15|15,567|567,15|15,579|579,15|15,596|596,15|15,610|610,15|15,648|648,15|15,661|661,15|15,686|686,15|16,34|34,16|16,50|50,16|16,68|68,16|16,119|119,16|16,132|132,16|16,133|133,16|16,159|159,16|16,161|161,16|16,194|194,16|16,196|196,16|16,243|243,16|16,252|252,16|16,255|255,16|16,258|258,16|16,290|290,16|16,294|294,16|16,323|323,16|16,338|338,16|16,355|355,16|16,377|377,16|16,381|381,16|16,414|414,16|16,431|431,16|16,446|446,16|16,517|517,16|16,521|521,16|16,528|528,16|16,571|571,16|16,589|589,16|16,617|617,16|16,658|658,16|16,668|668,16|16,673|673,16|16,676|676,16|17,35|35,17|17,78|78,17|17,80|80,17|17,86|86,17|17,123|123,17|17,145|145,17|17,149|149,17|17,189|189,17|17,222|222,17|17,227|227,17|17,229|229,17|17,232|232,17|17,236|236,17|17,247|247,17|17,263|263,17|17,267|267,17|17,284|284,17|17,341|341,17|17,343|343,17|17,352|352,17|17,353|353,17|17,365|365,17|17,366|366,17|17,372|372,17|17,419|419,17|17,437|437,17|17,463|463,17|17,468|468,17|17,470|470,17|17,532|532,17|17,556|556,17|17,557|557,17|17,565|565,17|17,582|582,17|17,608|608,17|17,647|647,17|17,656|656,17|17,682|682,17|18,36|36,18|18,46|46,18|18,47|47,18|18,62|62,18|18,79|79,18|18,105|105,18|18,141|141,18|18,165|165,18|18,174|174,18|18,216|216,18|18,223|223,18|18,291|291,18|18,319|319,18|18,329|329,18|18,349|349,18|18,351|351,18|18,358|358,18|18,386|386,18|18,433|433,18|18,435|435,18|18,436|436,18|18,443|443,18|18,444|444,18|18,457|457,18|18,474|474,18|18,477|477,18|18,508|508,18|18,512|512,18|18,536|536,18|18,562|562,18|18,566|566,18|18,573|573,18|18,591|591,18|18,600|600,18|18,609|609,18|18,614|614,18|18,650|650,18|18,688|688,18|];
nodes = [|1,9,0,0,0,0,1,1|2,9,0,0,0,0,1,2|3,9,0,0,0,0,1,3|4,9,0,0,0,0,1,4|5,9,0,0,0,0,1,5|6,9,0,0,0,0,1,6|7,9,0,0,0,0,1,7|8,9,0,0,0,0,1,8|9,9,0,0,0,0,1,9|10,9,0,0,0,0,1,10|11,9,0,0,0,0,1,11|12,9,0,0,0,0,1,12|13,9,0,0,0,0,1,13|14,9,0,0,0,0,1,14|15,9,0,0,0,0,1,15|16,9,0,0,0,0,1,16|17,9,0,0,0,0,1,17|18,9,0,0,0,0,1,18|19,10,0,0,0,0,1,1|20,10,0,0,0,0,1,2|21,10,0,0,0,0,1,3|22,10,0,0,0,0,1,4|23,10,0,0,0,0,1,5|24,10,0,0,0,0,1,6|25,10,0,0,0,0,1,7|26,10,0,0,0,0,1,8|27,10,0,0,0,0,1,9|28,10,0,0,0,0,1,10|29,10,0,0,0,0,1,11|30,10,0,0,0,0,1,12|31,10,0,0,0,0,1,13|32,10,0,0,0,0,1,14|33,10,0,0,0,0,1,15|34,10,0,0,0,0,1,16|35,10,0,0,0,0,1,17|36,10,0,0,0,0,1,18|37,2,0,0,0,0,1,9|38,4,0,0,0,0,1,13|39,4,0,0,0,0,1,4|40,5,0,0,0,0,1,3|41,2,0,0,0,0,1,14|42,1,0,0,0,0,1,11|43,3,0,0,0,0,1,7|44,3,0,0,0,0,1,4|45,4,0,0,0,0,1,4|46,1,0,0,0,0,1,18|47,1,0,0,0,0,1,18|48,5,0,0,0,0,1,1|49,5,0,0,0,0,1,7|50,1,0,0,0,0,1,16|51,2,0,0,0,0,1,2|52,4,0,0,0,0,1,11|53,2,0,0,0,0,1,6|54,3,0,0,0,0,1,15|55,3,0,0,0,0,1,10|56,3,0,0,0,0,1,7|57,2,0,0,0,0,1,5|58,3,0,0,0,0,1,7|59,4,0,0,0,0,1,13|60,4,0,0,0,0,1,6|61,1,0,0,0,0,1,10|62,1,0,0,0,0,1,18|63,4,0,0,0,0,1,11|64,3,0,0,0,0,1,14|65,2,0,0,0,0,1,15|66,5,0,0,0,0,1,13|67,2,0,0,0,0,1,14|68,1,0,0,0,0,1,16|69,2,0,0,0,0,1,9|70,3,0,0,0,0,1,9|71,5,0,0,0,0,1,10|72,5,0,0,0,0,1,1|73,1,0,0,0,0,1,13|74,5,0,0,0,0,1,7|75,5,0,0,0,0,1,9|76,2,0,0,0,0,1,14|77,4,0,0,0,0,1,10|78,5,0,0,0,0,1,17|79,2,0,0,0,0,1,18|80,2,0,0,0,0,1,17|81,4,0,0,0,0,1,3|82,3,0,0,0,0,1,3|83,1,0,0,0,0,1,10|84,3,0,0,0,0,1,14|85,2,0,0,0,0,1,10|86,2,0,0,0,0,1,17|87,3,0,0,0,0,1,9|88,3,0,0,0,0,1,13|89,4,0,0,0,0,1,12|90,5,0,0,0,0,1,1|91,4,0,0,0,0,1,8|92,1,0,0,0,0,1,8|93,4,0,0,0,0,1,6|94,1,0,0,0,0,1,11|95,5,0,0,0,0,1,4|96,5,0,0,0,0,1,5|97,2,0,0,0,0,1,7|98,3,0,0,0,0,1,9|99,2,0,0,0,0,1,13|100,2,0,0,0,0,1,8|101,3,0,0,0,0,1,2|102,3,0,0,0,0,1,10|103,3,0,0,0,0,1,3|104,4,0,0,0,0,1,3|105,2,0,0,0,0,1,18|106,4,0,0,0,0,1,5|107,3,0,0,0,0,1,4|108,1,0,0,0,0,1,14|109,1,0,0,0,0,1,14|110,5,0,0,0,0,1,9|111,3,0,0,0,0,1,14|112,2,0,0,0,0,1,15|113,3,0,0,0,0,1,1|114,2,0,0,0,0,1,10|115,1,0,0,0,0,1,13|116,2,0,0,0,0,1,12|117,2,0,0,0,0,1,9|118,1,0,0,0,0,1,4|119,5,0,0,0,0,1,16|120,5,0,0,0,0,1,1|121,1,0,0,0,0,1,6|122,3,0,0,0,0,1,11|123,4,0,0,0,0,1,17|124,4,0,0,0,0,1,13|125,2,0,0,0,0,1,8|126,2,0,0,0,0,1,4|127,5,0,0,0,0,1,12|128,3,0,0,0,0,1,4|129,3,0,0,0,0,1,6|130,4,0,0,0,0,1,8|131,1,0,0,0,0,1,12|132,1,0,0,0,0,1,16|133,2,0,0,0,0,1,16|134,2,0,0,0,0,1,11|135,1,0,0,0,0,1,5|136,4,0,0,0,0,1,7|137,5,0,0,0,0,1,15|138,2,0,0,0,0,1,6|139,2,0,0,0,0,1,4|140,2,0,0,0,0,1,8|141,1,0,0,0,0,1,18|142,3,0,0,0,0,1,13|143,2,0,0,0,0,1,14|144,4,0,0,0,0,1,8|145,4,0,0,0,0,1,17|146,2,0,0,0,0,1,11|147,4,0,0,0,0,1,7|148,2,0,0,0,0,1,11|149,3,0,0,0,0,1,17|150,4,0,0,0,0,1,6|151,3,0,0,0,0,1,12|152,5,0,0,0,0,1,3|153,2,0,0,0,0,1,3|154,1,0,0,0,0,1,1|155,1,0,0,0,0,1,15|156,5,0,0,0,0,1,12|157,5,0,0,0,0,1,8|158,1,0,0,0,0,1,14|159,5,0,0,0,0,1,16|160,3,0,0,0,0,1,10|161,3,0,0,0,0,1,16|162,4,0,0,0,0,1,6|163,2,0,0,0,0,1,14|164,2,0,0,0,0,1,3|165,5,0,0,0,0,1,18|166,2,0,0,0,0,1,5|167,2,0,0,0,0,1,5|168,4,0,0,0,0,1,2|169,3,0,0,0,0,1,3|170,1,0,0,0,0,1,11|171,1,0,0,0,0,1,5|172,1,0,0,0,0,1,9|173,3,0,0,0,0,1,5|174,1,0,0,0,0,1,18|175,5,0,0,0,0,1,9|176,4,0,0,0,0,1,11|177,1,0,0,0,0,1,7|178,3,0,0,0,0,1,10|179,3,0,0,0,0,1,6|180,1,0,0,0,0,1,13|181,2,0,0,0,0,1,4|182,2,0,0,0,0,1,5|183,5,0,0,0,0,1,9|184,3,0,0,0,0,1,4|185,5,0,0,0,0,1,3|186,3,0,0,0,0,1,8|187,1,0,0,0,0,1,8|188,2,0,0,0,0,1,7|189,1,0,0,0,0,1,17|190,4,0,0,0,0,1,3|191,3,0,0,0,0,1,14|192,5,0,0,0,0,1,13|193,2,0,0,0,0,1,1|194,3,0,0,0,0,1,16|195,3,0,0,0,0,1,5|196,3,0,0,0,0,1,16|197,2,0,0,0,0,1,15|198,1,0,0,0,0,1,11|199,5,0,0,0,0,1,3|200,4,0,0,0,0,1,7|201,4,0,0,0,0,1,13|202,1,0,0,0,0,1,5|203,1,0,0,0,0,1,7|204,3,0,0,0,0,1,12|205,1,0,0,0,0,1,14|206,2,0,0,0,0,1,10|207,3,0,0,0,0,1,7|208,1,0,0,0,0,1,7|209,3,0,0,0,0,1,4|210,3,0,0,0,0,1,15|211,5,0,0,0,0,1,7|212,2,0,0,0,0,1,13|213,2,0,0,0,0,1,4|214,5,0,0,0,0,1,6|215,2,0,0,0,0,1,6|216,3,0,0,0,0,1,18|217,1,0,0,0,0,1,10|218,5,0,0,0,0,1,12|219,3,0,0,0,0,1,10|220,2,0,0,0,0,1,13|221,4,0,0,0,0,1,1|222,1,0,0,0,0,1,17|223,1,0,0,0,0,1,18|224,1,0,0,0,0,1,14|225,1,0,0,0,0,1,3|226,4,0,0,0,0,1,2|227,3,0,0,0,0,1,17|228,5,0,0,0,0,1,2|229,2,0,0,0,0,1,17|230,4,0,0,0,0,1,14|231,1,0,0,0,0,1,4|232,2,0,0,0,0,1,17|233,2,0,0,0,0,1,2|234,2,0,0,0,0,1,8|235,4,0,0,0,0,1,13|236,5,0,0,0,0,1,17|237,4,0,0,0,0,1,15|238,3,0,0,0,0,1,4|239,3,0,0,0,0,1,1|240,5,0,0,0,0,1,14|241,4,0,0,0,0,1,14|242,4,0,0,0,0,1,7|243,2,0,0,0,0,1,16|244,1,0,0,0,0,1,13|245,2,0,0,0,0,1,10|246,4,0,0,0,0,1,3|247,2,0,0,0,0,1,17|248,4,0,0,0,0,1,4|249,5,0,0,0,0,1,6|250,1,0,0,0,0,1,3|251,5,0,0,0,0,1,10|252,2,0,0,0,0,1,16|253,2,0,0,0,0,1,3|254,1,0,0,0,0,1,11|255,2,0,0,0,0,1,16|256,5,0,0,0,0,1,9|257,5,0,0,0,0,1,12|258,5,0,0,0,0,1,16|259,5,0,0,0,0,1,6|260,5,0,0,0,0,1,13|261,1,0,0,0,0,1,10|262,5,0,0,0,0,1,11|263,5,0,0,0,0,1,17|264,5,0,0,0,0,1,4|265,1,0,0,0,0,1,1|266,3,0,0,0,0,1,11|267,4,0,0,0,0,1,17|268,1,0,0,0,0,1,2|269,3,0,0,0,0,1,13|270,2,0,0,0,0,1,12|271,2,0,0,0,0,1,4|272,3,0,0,0,0,1,6|273,3,0,0,0,0,1,9|274,4,0,0,0,0,1,2|275,3,0,0,0,0,1,10|276,4,0,0,0,0,1,9|277,5,0,0,0,0,1,15|278,1,0,0,0,0,1,15|279,2,0,0,0,0,1,1|280,2,0,0,0,0,1,8|281,1,0,0,0,0,1,10|282,5,0,0,0,0,1,11|283,3,0,0,0,0,1,2|284,4,0,0,0,0,1,17|285,3,0,0,0,0,1,12|286,5,0,0,0,0,1,3|287,2,0,0,0,0,1,14|288,3,0,0,0,0,1,11|289,4,0,0,0,0,1,9|290,1,0,0,0,0,1,16|291,1,0,0,0,0,1,18|292,3,0,0,0,0,1,13|293,1,0,0,0,0,1,1|294,3,0,0,0,0,1,16|295,1,0,0,0,0,1,4|296,3,0,0,0,0,1,3|297,4,0,0,0,0,1,10|298,2,0,0,0,0,1,4|299,2,0,0,0,0,1,5|300,5,0,0,0,0,1,6|301,1,0,0,0,0,1,9|302,3,0,0,0,0,1,2|303,3,0,0,0,0,1,10|304,4,0,0,0,0,1,2|305,4,0,0,0,0,1,10|306,3,0,0,0,0,1,7|307,2,0,0,0,0,1,1|308,4,0,0,0,0,1,9|309,5,0,0,0,0,1,3|310,1,0,0,0,0,1,8|311,2,0,0,0,0,1,10|312,5,0,0,0,0,1,8|313,3,0,0,0,0,1,11|314,5,0,0,0,0,1,5|315,1,0,0,0,0,1,9|316,1,0,0,0,0,1,11|317,5,0,0,0,0,1,2|318,2,0,0,0,0,1,13|319,3,0,0,0,0,1,18|320,4,0,0,0,0,1,5|321,4,0,0,0,0,1,10|322,1,0,0,0,0,1,12|323,3,0,0,0,0,1,16|324,3,0,0,0,0,1,4|325,2,0,0,0,0,1,2|326,2,0,0,0,0,1,2|327,3,0,0,0,0,1,6|328,5,0,0,0,0,1,12|329,1,0,0,0,0,1,18|330,5,0,0,0,0,1,15|331,3,0,0,0,0,1,15|332,1,0,0,0,0,1,10|333,4,0,0,0,0,1,6|334,3,0,0,0,0,1,9|335,4,0,0,0,0,1,2|336,3,0,0,0,0,1,12|337,5,0,0,0,0,1,14|338,5,0,0,0,0,1,16|339,2,0,0,0,0,1,9|340,2,0,0,0,0,1,13|341,5,0,0,0,0,1,17|342,4,0,0,0,0,1,8|343,1,0,0,0,0,1,17|344,4,0,0,0,0,1,12|345,1,0,0,0,0,1,11|346,4,0,0,0,0,1,9|347,1,0,0,0,0,1,8|348,5,0,0,0,0,1,3|349,3,0,0,0,0,1,18|350,2,0,0,0,0,1,6|351,5,0,0,0,0,1,18|352,4,0,0,0,0,1,17|353,4,0,0,0,0,1,17|354,4,0,0,0,0,1,5|355,4,0,0,0,0,1,16|356,2,0,0,0,0,1,6|357,3,0,0,0,0,1,2|358,5,0,0,0,0,1,18|359,2,0,0,0,0,1,13|360,1,0,0,0,0,1,3|361,4,0,0,0,0,1,14|362,4,0,0,0,0,1,1|363,3,0,0,0,0,1,2|364,2,0,0,0,0,1,11|365,4,0,0,0,0,1,17|366,1,0,0,0,0,1,17|367,4,0,0,0,0,1,5|368,4,0,0,0,0,1,8|369,1,0,0,0,0,1,5|370,2,0,0,0,0,1,7|371,5,0,0,0,0,1,1|372,1,0,0,0,0,1,17|373,1,0,0,0,0,1,6|374,2,0,0,0,0,1,2|375,5,0,0,0,0,1,3|376,5,0,0,0,0,1,12|377,1,0,0,0,0,1,16|378,2,0,0,0,0,1,15|379,3,0,0,0,0,1,5|380,1,0,0,0,0,1,5|381,2,0,0,0,0,1,16|382,3,0,0,0,0,1,13|383,2,0,0,0,0,1,9|384,1,0,0,0,0,1,2|385,1,0,0,0,0,1,12|386,4,0,0,0,0,1,18|387,2,0,0,0,0,1,9|388,5,0,0,0,0,1,3|389,3,0,0,0,0,1,8|390,4,0,0,0,0,1,15|391,3,0,0,0,0,1,15|392,4,0,0,0,0,1,12|393,5,0,0,0,0,1,11|394,5,0,0,0,0,1,14|395,1,0,0,0,0,1,7|396,1,0,0,0,0,1,4|397,5,0,0,0,0,1,2|398,4,0,0,0,0,1,8|399,2,0,0,0,0,1,12|400,3,0,0,0,0,1,11|401,3,0,0,0,0,1,13|402,5,0,0,0,0,1,3|403,3,0,0,0,0,1,13|404,5,0,0,0,0,1,13|405,5,0,0,0,0,1,6|406,4,0,0,0,0,1,1|407,1,0,0,0,0,1,9|408,5,0,0,0,0,1,12|409,5,0,0,0,0,1,15|410,1,0,0,0,0,1,14|411,4,0,0,0,0,1,15|412,5,0,0,0,0,1,6|413,2,0,0,0,0,1,5|414,1,0,0,0,0,1,16|415,3,0,0,0,0,1,15|416,3,0,0,0,0,1,4|417,5,0,0,0,0,1,15|418,2,0,0,0,0,1,3|419,2,0,0,0,0,1,17|420,5,0,0,0,0,1,3|421,5,0,0,0,0,1,6|422,4,0,0,0,0,1,14|423,5,0,0,0,0,1,1|424,3,0,0,0,0,1,12|425,2,0,0,0,0,1,10|426,5,0,0,0,0,1,9|427,1,0,0,0,0,1,9|428,2,0,0,0,0,1,8|429,5,0,0,0,0,1,6|430,3,0,0,0,0,1,5|431,5,0,0,0,0,1,16|432,2,0,0,0,0,1,13|433,4,0,0,0,0,1,18|434,2,0,0,0,0,1,6|435,3,0,0,0,0,1,18|436,5,0,0,0,0,1,18|437,1,0,0,0,0,1,17|438,2,0,0,0,0,1,4|439,3,0,0,0,0,1,1|440,5,0,0,0,0,1,4|441,5,0,0,0,0,1,3|442,4,0,0,0,0,1,3|443,2,0,0,0,0,1,18|444,5,0,0,0,0,1,18|445,4,0,0,0,0,1,8|446,2,0,0,0,0,1,16|447,3,0,0,0,0,1,14|448,2,0,0,0,0,1,2|449,5,0,0,0,0,1,1|450,3,0,0,0,0,1,14|451,3,0,0,0,0,1,12|452,3,0,0,0,0,1,6|453,4,0,0,0,0,1,6|454,4,0,0,0,0,1,7|455,3,0,0,0,0,1,10|456,3,0,0,0,0,1,3|457,4,0,0,0,0,1,18|458,1,0,0,0,0,1,11|459,4,0,0,0,0,1,14|460,3,0,0,0,0,1,15|461,1,0,0,0,0,1,4|462,2,0,0,0,0,1,12|463,5,0,0,0,0,1,17|464,4,0,0,0,0,1,7|465,2,0,0,0,0,1,2|466,5,0,0,0,0,1,8|467,3,0,0,0,0,1,4|468,1,0,0,0,0,1,17|469,3,0,0,0,0,1,6|470,5,0,0,0,0,1,17|471,3,0,0,0,0,1,3|472,4,0,0,0,0,1,11|473,1,0,0,0,0,1,10|474,1,0,0,0,0,1,18|475,3,0,0,0,0,1,7|476,3,0,0,0,0,1,9|477,2,0,0,0,0,1,18|478,2,0,0,0,0,1,2|479,5,0,0,0,0,1,3|480,2,0,0,0,0,1,6|481,4,0,0,0,0,1,12|482,4,0,0,0,0,1,2|483,5,0,0,0,0,1,13|484,5,0,0,0,0,1,2|485,1,0,0,0,0,1,7|486,4,0,0,0,0,1,5|487,3,0,0,0,0,1,15|488,4,0,0,0,0,1,1|489,1,0,0,0,0,1,3|490,1,0,0,0,0,1,2|491,1,0,0,0,0,1,2|492,2,0,0,0,0,1,9|493,2,0,0,0,0,1,9|494,2,0,0,0,0,1,15|495,2,0,0,0,0,1,7|496,3,0,0,0,0,1,5|497,3,0,0,0,0,1,9|498,2,0,0,0,0,1,12|499,4,0,0,0,0,1,3|500,2,0,0,0,0,1,8|501,5,0,0,0,0,1,6|502,1,0,0,0,0,1,15|503,3,0,0,0,0,1,2|504,4,0,0,0,0,1,12|505,2,0,0,0,0,1,15|506,4,0,0,0,0,1,11|507,1,0,0,0,0,1,11|508,1,0,0,0,0,1,18|509,1,0,0,0,0,1,7|510,2,0,0,0,0,1,2|511,1,0,0,0,0,1,13|512,5,0,0,0,0,1,18|513,1,0,0,0,0,1,12|514,2,0,0,0,0,1,1|515,4,0,0,0,0,1,5|516,3,0,0,0,0,1,4|517,5,0,0,0,0,1,16|518,2,0,0,0,0,1,11|519,1,0,0,0,0,1,9|520,2,0,0,0,0,1,13|521,4,0,0,0,0,1,16|522,2,0,0,0,0,1,10|523,1,0,0,0,0,1,14|524,3,0,0,0,0,1,15|525,5,0,0,0,0,1,7|526,4,0,0,0,0,1,15|527,1,0,0,0,0,1,12|528,5,0,0,0,0,1,16|529,2,0,0,0,0,1,15|530,5,0,0,0,0,1,7|531,5,0,0,0,0,1,1|532,2,0,0,0,0,1,17|533,5,0,0,0,0,1,5|534,4,0,0,0,0,1,14|535,1,0,0,0,0,1,9|536,2,0,0,0,0,1,18|537,1,0,0,0,0,1,15|538,1,0,0,0,0,1,8|539,2,0,0,0,0,1,7|540,5,0,0,0,0,1,3|541,2,0,0,0,0,1,2|542,3,0,0,0,0,1,12|543,3,0,0,0,0,1,6|544,4,0,0,0,0,1,12|545,4,0,0,0,0,1,5|546,5,0,0,0,0,1,13|547,3,0,0,0,0,1,8|548,5,0,0,0,0,1,9|549,2,0,0,0,0,1,4|550,5,0,0,0,0,1,8|551,1,0,0,0,0,1,12|552,3,0,0,0,0,1,4|553,3,0,0,0,0,1,7|554,1,0,0,0,0,1,8|555,5,0,0,0,0,1,5|556,5,0,0,0,0,1,17|557,4,0,0,0,0,1,17|558,4,0,0,0,0,1,14|559,2,0,0,0,0,1,11|560,4,0,0,0,0,1,11|561,3,0,0,0,0,1,15|562,3,0,0,0,0,1,18|563,4,0,0,0,0,1,10|564,4,0,0,0,0,1,12|565,5,0,0,0,0,1,17|566,1,0,0,0,0,1,18|567,5,0,0,0,0,1,15|568,2,0,0,0,0,1,1|569,3,0,0,0,0,1,8|570,3,0,0,0,0,1,7|571,1,0,0,0,0,1,16|572,2,0,0,0,0,1,12|573,4,0,0,0,0,1,18|574,1,0,0,0,0,1,5|575,2,0,0,0,0,1,11|576,3,0,0,0,0,1,4|577,5,0,0,0,0,1,13|578,2,0,0,0,0,1,10|579,3,0,0,0,0,1,15|580,1,0,0,0,0,1,11|581,1,0,0,0,0,1,13|582,4,0,0,0,0,1,17|583,5,0,0,0,0,1,14|584,3,0,0,0,0,1,2|585,1,0,0,0,0,1,6|586,5,0,0,0,0,1,5|587,5,0,0,0,0,1,4|588,4,0,0,0,0,1,11|589,5,0,0,0,0,1,16|590,4,0,0,0,0,1,10|591,4,0,0,0,0,1,18|592,4,0,0,0,0,1,12|593,4,0,0,0,0,1,11|594,3,0,0,0,0,1,8|595,3,0,0,0,0,1,5|596,5,0,0,0,0,1,15|597,2,0,0,0,0,1,5|598,4,0,0,0,0,1,7|599,5,0,0,0,0,1,7|600,2,0,0,0,0,1,18|601,3,0,0,0,0,1,11|602,4,0,0,0,0,1,14|603,1,0,0,0,0,1,1|604,1,0,0,0,0,1,2|605,4,0,0,0,0,1,2|606,4,0,0,0,0,1,10|607,3,0,0,0,0,1,1|608,5,0,0,0,0,1,17|609,5,0,0,0,0,1,18|610,1,0,0,0,0,1,15|611,1,0,0,0,0,1,8|612,4,0,0,0,0,1,8|613,5,0,0,0,0,1,1|614,5,0,0,0,0,1,18|615,2,0,0,0,0,1,10|616,1,0,0,0,0,1,9|617,5,0,0,0,0,1,16|618,5,0,0,0,0,1,11|619,4,0,0,0,0,1,1|620,3,0,0,0,0,1,6|621,1,0,0,0,0,1,7|622,3,0,0,0,0,1,2|623,1,0,0,0,0,1,7|624,3,0,0,0,0,1,3|625,1,0,0,0,0,1,1|626,5,0,0,0,0,1,11|627,5,0,0,0,0,1,8|628,1,0,0,0,0,1,8|629,5,0,0,0,0,1,14|630,2,0,0,0,0,1,8|631,3,0,0,0,0,1,4|632,3,0,0,0,0,1,4|633,5,0,0,0,0,1,12|634,2,0,0,0,0,1,2|635,2,0,0,0,0,1,2|636,5,0,0,0,0,1,10|637,1,0,0,0,0,1,5|638,4,0,0,0,0,1,8|639,3,0,0,0,0,1,14|640,2,0,0,0,0,1,14|641,1,0,0,0,0,1,6|642,2,0,0,0,0,1,1|643,2,0,0,0,0,1,1|644,3,0,0,0,0,1,11|645,2,0,0,0,0,1,1|646,2,0,0,0,0,1,3|647,2,0,0,0,0,1,17|648,2,0,0,0,0,1,15|649,5,0,0,0,0,1,5|650,3,0,0,0,0,1,18|651,3,0,0,0,0,1,13|652,4,0,0,0,0,1,14|653,5,0,0,0,0,1,14|654,2,0,0,0,0,1,9|655,5,0,0,0,0,1,6|656,2,0,0,0,0,1,17|657,2,0,0,0,0,1,2|658,4,0,0,0,0,1,16|659,5,0,0,0,0,1,10|660,2,0,0,0,0,1,1|661,2,0,0,0,0,1,15|662,2,0,0,0,0,1,6|663,2,0,0,0,0,1,1|664,2,0,0,0,0,1,5|665,4,0,0,0,0,1,7|666,4,0,0,0,0,1,13|667,2,0,0,0,0,1,8|668,4,0,0,0,0,1,16|669,3,0,0,0,0,1,4|670,1,0,0,0,0,1,5|671,5,0,0,0,0,1,12|672,4,0,0,0,0,1,6|673,5,0,0,0,0,1,16|674,2,0,0,0,0,1,5|675,5,0,0,0,0,1,12|676,5,0,0,0,0,1,16|677,3,0,0,0,0,1,1|678,3,0,0,0,0,1,9|679,3,0,0,0,0,1,10|680,5,0,0,0,0,1,7|681,3,0,0,0,0,1,4|682,4,0,0,0,0,1,17|683,3,0,0,0,0,1,8|684,5,0,0,0,0,1,7|685,1,0,0,0,0,1,5|686,1,0,0,0,0,1,15|687,3,0,0,0,0,1,13|688,4,0,0,0,0,1,18|689,3,0,0,0,0,1,9|690,2,0,0,0,0,1,4|691,1,0,0,0,0,1,10|];
